n_boats=80;
n_periods=20;
capacity=[72,30,3,32,88,83,8,7,19,76,71,45,92,82,71,61,7,51,40,74,15,11,68,4,38,47,48,22,71,53,2,95,39,35,12,74,10,83,38,77,50,64,74,27,19,49,89,6,33,30,27,21,11,35,4,61,33,96,49,31,48,42,82,62,14,18,2,59,16,48,49,79,90,44,3,4,14,8,16,80];
crew=[29,11,3,6,12,78,1,3,10,10,23,21,83,32,58,14,7,18,40,73,4,4,41,2,21,13,4,3,5,12,1,84,13,18,8,64,5,7,32,11,29,21,56,23,13,32,74,3,6,22,13,12,7,24,3,50,3,22,35,15,20,11,82,20,5,8,1,10,9,16,39,7,28,16,3,1,10,5,3,79];
